30
5
20933
502 337 664 662 239
false
0.25
21 17 3 7 1 14 46 16 44 41 44 17 46 31 10 31 8 31 12 28 32 33 31 32 34 37 42 21 11 3
27 48 9 37 29 22 5 10 24 47 16 23 10 16 15 9 38 45 1 41 47 50 15 42 20 25 44 14 49 20
31 12 50 2 30 45 23 8 50 19 12 13 34 50 20 37 31 42 26 44 43 13 23 21 47 28 1 7 10 8
14 42 50 47 42 19 48 18 29 10 17 13 39 18 5 9 9 2 23 28 38 45 32 4 24 6 14 38 11 20
1 37 30 25 9 1 3 31 1 16 15 15 32 19 29 35 8 6 45 21 7 30 16 4 21 41 49 6 50 32
53 16 29 57 33 6 43 11 88 27 1 75 71 64 39 79 74 47 59 51 49 15 51 81 2 51 92 16 40 13
0 0 0 0 0 0 58 0 0 0 62 0 0 0 0 0 0 0 0 75 0 0 8 0 0 0 0 0 0 0
0 0 0 93 0 0 0 0 0 0 0 0 0 0 0 0 0 0 0 0 0 90 0 0 0 91 0 0 3
0 0 0 0 0 0 0 0 0 62 0 0 0 0 83 0 43 76 0 34 0 0 0 0 80 0 0 0
0 0 87 0 0 0 0 0 0 0 0 0 0 0 0 0 7 14 78 98 37 0 0 0 0 81 0
0 0 0 0 0 0 0 0 0 29 0 0 0 0 0 0 0 0 0 0 28 45 0 0 0 0
0 0 0 0 0 81 18 0 0 0 28 0 0 0 58 0 0 0 0 0 0 37 0 0 0
0 0 78 0 0 100 0 0 0 25 68 0 0 0 0 0 0 30 25 0 0 0 0 0
0 0 0 95 0 0 14 0 0 77 0 94 0 54 0 0 99 11 0 0 0 0 0
0 0 0 13 11 0 0 0 0 21 69 0 0 0 0 0 21 0 0 47 0 0
0 0 0 0 22 0 0 0 0 0 14 66 0 0 0 36 0 0 0 0 0
0 0 28 8 0 0 47 0 14 0 0 0 0 0 0 35 0 0 0 0
0 25 0 14 0 0 0 0 0 0 20 0 0 0 0 78 0 0 0
0 0 51 0 0 0 0 0 62 0 0 0 0 0 20 0 0 0
0 0 0 0 0 0 0 0 0 0 56 0 0 60 0 0 0
0 0 71 0 52 0 0 0 0 0 0 0 0 0 0 90
0 0 0 86 0 79 39 0 29 0 0 0 0 0 48
0 65 0 55 0 0 0 0 0 81 0 0 0 0
0 0 0 0 0 0 60 0 0 0 0 0 0
0 0 0 0 0 0 0 0 93 0 0 0
0 0 0 0 0 0 0 0 0 0 0
0 0 0 60 15 0 0 0 9 0
0 0 0 6 0 0 0 0 99
0 19 0 97 0 0 52 0
0 0 0 0 0 92 0
0 0 13 0 36 0
0 0 0 42 21
0 0 0 10
0 41 0
0 0
0 30 0 0 0 0 3 0 0 0 0 0 0 0 30 0 0 0 38 64 0 0 89 45 0 0 0 99 0
0 75 0 56 0 0 0 0 0 68 53 0 0 74 82 0 0 0 52 0 0 0 69 0 0 0 0 42
0 0 37 0 0 61 91 0 0 57 0 0 0 31 0 0 0 40 0 0 32 0 0 0 0 0 5
0 90 15 0 0 0 5 0 0 0 0 96 0 0 0 0 0 0 0 0 0 0 0 0 0 48
0 0 0 0 0 0 0 0 0 0 61 0 0 21 0 0 0 0 0 0 0 13 0 56 64
0 41 0 0 5 0 0 95 68 0 0 82 0 0 0 70 41 0 12 48 67 0 0 0
0 0 11 0 0 53 66 0 0 0 5 0 0 0 0 0 0 0 0 45 0 0 0
0 0 0 92 0 0 0 0 0 0 0 0 0 17 0 0 0 0 92 96 0 0
0 0 0 0 74 0 0 0 0 2 3 0 0 51 0 0 0 0 0 0 4
0 0 0 0 0 0 0 0 0 0 55 0 45 0 0 78 0 0 45 93
0 0 67 71 0 0 0 0 0 0 0 99 76 0 0 0 0 0 0
0 0 58 0 0 42 0 0 17 0 0 0 0 0 0 0 43 3
0 0 0 0 0 0 25 58 0 0 80 93 0 86 0 0 96
0 0 0 45 0 28 20 38 0 63 0 0 0 0 0 0
0 0 0 83 79 0 12 0 0 0 0 0 0 0 57
0 0 0 0 61 0 28 0 92 0 0 94 0 0
0 10 0 0 46 71 97 0 0 0 0 0 0
0 0 0 0 0 0 0 0 0 3 0 0
0 0 0 0 0 0 0 48 47 0 0
0 0 0 0 0 0 0 0 47 0
0 0 0 0 0 0 0 0 0
0 0 0 0 74 72 0 0
0 0 0 25 74 0 0
0 0 64 0 86 44
0 0 12 0 89
0 19 0 65
0 0 80
0 0
0
0 0 0 66 0 0 0 0 94 15 0 0 0 0 0 0 0 0 42 81 27 0 0 0 0 0 2 0
0 0 0 0 0 0 0 50 0 95 0 0 0 0 82 20 0 0 24 0 0 0 0 69 47 0 0
0 0 0 0 0 52 0 0 0 0 0 0 0 0 88 0 0 0 0 0 0 43 0 17 18 0
0 42 34 0 0 99 0 28 65 86 0 0 0 0 0 0 0 0 74 32 0 0 74 0 0
0 43 0 0 0 0 0 0 0 0 0 0 0 0 88 0 0 0 0 0 0 0 0 42
0 0 0 0 0 0 0 63 0 0 0 0 62 0 0 91 49 0 0 0 0 0 0
0 1 76 0 0 0 66 95 0 0 82 0 0 0 0 38 0 0 0 51 0 0
0 41 0 0 29 0 0 0 0 0 0 0 0 70 0 0 0 0 0 0 0
0 12 0 0 0 0 61 0 83 0 92 89 0 0 0 53 0 0 56 0
0 0 0 29 0 0 0 75 54 0 0 0 0 0 79 0 0 78 5
0 0 0 0 0 0 0 58 49 74 0 0 0 0 46 0 0 19
0 0 0 0 0 0 0 0 0 23 18 0 0 0 22 0 0
0 0 0 100 0 24 0 0 0 0 0 74 0 0 41 0
0 0 0 0 0 33 0 67 0 21 0 0 0 0 21
0 0 0 0 0 2 0 0 0 25 3 0 0 0
0 0 0 0 0 66 89 0 0 0 0 0 84
0 3 0 9 0 0 0 49 0 0 0 0
0 0 0 0 31 51 24 0 0 0 0
0 0 0 0 37 0 56 67 0 0
0 0 8 0 20 69 0 0 0
0 84 0 0 58 0 0 0
0 0 0 0 0 91 0
0 64 0 0 33 0
0 51 0 0 0
0 0 8 0
0 0 0
0 61
0
0 69 3 0 70 0 0 0 0 0 0 0 0 0 0 0 0 75 0 0 68 0 0 0 0 0 0
0 0 0 3 0 0 0 0 0 0 0 0 0 82 0 0 0 0 0 0 0 0 0 0 0 0
0 0 0 0 0 0 0 0 0 0 0 0 0 0 0 57 0 0 91 0 0 0 0 0 0
0 0 0 0 0 0 0 0 0 0 68 0 0 0 0 63 0 0 0 4 12 0 0 55
0 0 0 63 0 0 0 92 5 0 0 0 0 0 0 0 90 78 0 77 0 99 0
0 0 0 0 0 0 0 67 0 0 0 0 0 0 67 0 0 92 0 49 0 0
0 56 0 96 0 0 0 0 0 0 0 0 0 0 0 0 0 0 0 0 0
0 0 0 0 0 0 65 90 0 0 0 87 0 75 0 0 0 0 0 24
0 67 66 0 0 0 0 0 23 0 6 0 0 0 0 0 0 0 0
0 0 70 0 0 0 0 91 0 2 0 0 0 0 0 89 0 0
0 0 14 0 0 8 0 0 0 0 0 66 59 0 0 0 0
0 0 0 0 0 0 0 79 0 0 0 0 0 0 0 0
0 0 49 0 96 92 0 0 2 0 0 0 0 0 0
0 8 0 78 0 0 44 0 0 0 0 0 0 0
0 0 0 0 15 0 0 0 6 47 0 0 0
0 0 2 0 0 0 0 0 84 34 0 40
0 0 0 0 0 0 0 0 0 0 0
0 0 0 68 0 0 0 0 0 0
0 51 0 0 0 74 0 0 0
0 0 0 0 60 0 0 31
0 0 93 0 0 0 0
0 0 0 0 6 0
0 98 0 34 47
0 0 0 0
0 0 0
0 0
0
0 0 0 0 48 84 0 48 0 22 58 0 0 0 0 22 0 0 0 0 0 0 45 0 0 0
0 4 0 0 0 0 0 0 15 0 82 0 0 25 0 30 81 0 0 0 0 64 0 0 0
0 62 0 0 0 0 0 0 0 0 0 0 57 0 51 0 0 0 0 0 0 0 39 0
0 81 0 0 0 0 28 0 0 0 0 0 0 89 82 0 0 0 4 0 32 0 41
0 80 23 0 0 17 0 50 0 0 69 0 0 0 0 0 0 0 93 0 23 38
0 0 0 0 0 42 0 0 19 0 52 47 77 42 0 0 0 0 0 0 0
0 84 0 0 0 0 0 0 40 0 0 0 0 0 0 0 0 0 3 97
0 0 0 0 0 0 0 0 0 0 0 53 0 0 0 0 0 0 0
0 0 0 0 0 0 0 0 0 43 82 83 0 0 0 0 0 0
0 0 0 0 81 0 0 0 0 0 0 0 0 0 0 0 0
0 0 0 0 0 0 0 0 25 0 0 0 0 0 0 0
0 0 0 0 0 0 0 9 0 0 14 0 0 0 99
0 0 0 0 40 0 0 0 0 0 0 70 0 49
0 0 0 0 91 0 41 0 0 0 0 0 0
0 0 0 0 0 0 0 0 0 0 0 0
0 96 0 0 0 0 0 0 0 0 0
0 0 19 72 55 66 25 0 0 0
0 0 0 75 0 84 0 0 36
0 0 54 0 0 0 0 0
0 0 0 0 0 15 0
0 0 0 0 0 0
0 0 57 0 0
0 13 0 0
0 0 26
0 0
0
0 0 0 0 0 0 0 0 0 0 0 0 0 0 0 0 0 0 0 24 0 95 0 0 0
0 0 0 0 0 0 0 0 0 0 0 0 0 0 0 2 4 0 0 23 0 5 0 0
0 53 0 0 0 0 0 0 0 16 2 0 0 0 0 0 0 0 1 0 0 0 67
0 0 0 92 0 95 0 0 0 5 0 0 0 99 0 28 24 55 0 0 0 62
0 50 0 18 0 0 0 0 0 0 0 35 0 0 0 0 61 0 0 0 0
0 62 0 0 17 0 0 0 0 26 93 0 45 79 0 0 0 0 0 0
0 0 0 0 0 49 0 0 48 0 0 0 55 0 0 95 71 0 0
0 95 60 0 0 0 0 26 0 0 0 8 0 0 0 0 66 51
0 0 0 53 0 0 0 0 0 0 4 0 3 26 0 0 75
0 48 0 0 0 0 0 0 0 26 0 0 0 0 0 0
0 0 0 0 0 0 0 0 0 0 0 0 0 0 0
0 0 0 10 0 86 0 0 0 0 64 0 0 0
0 23 0 0 64 0 0 0 0 0 0 0 12
0 0 0 19 72 9 73 0 0 19 0 0
0 0 0 0 0 97 0 57 0 0 0
0 56 0 64 0 0 0 0 0 0
0 61 0 0 0 0 0 67 0
0 0 0 0 48 0 0 0
0 0 0 0 79 0 54
0 0 0 0 0 0
0 0 0 0 0
0 0 0 0
0 0 0
0 0
0
0 59 61 41 84 0 0 0 0 0 0 0 0 0 0 0 0 0 0 0 77 0 88 0
0 75 0 0 0 0 0 28 0 0 0 0 83 0 0 0 0 85 0 0 0 0 0
0 48 86 0 0 0 0 0 14 41 50 0 19 66 0 36 28 0 0 0 0 0
0 0 0 0 0 0 0 0 0 0 0 0 0 0 93 0 0 0 0 0 0
0 0 0 0 12 0 0 99 71 0 0 0 59 0 0 0 0 0 48 0
0 96 0 0 0 13 0 0 53 0 0 35 0 0 0 0 0 24 29
0 0 16 0 0 0 0 0 0 0 64 0 0 81 0 0 74 62
0 0 0 0 59 0 0 0 0 0 0 0 67 0 55 17 0
0 0 0 54 0 0 0 0 0 0 0 0 4 0 0 0
0 0 0 0 0 81 0 0 0 0 0 57 0 0 47
0 0 39 0 0 0 72 0 0 0 0 89 0 0
0 0 0 0 25 0 0 0 32 0 0 0 0
0 0 98 35 0 32 0 0 42 0 77 0
0 0 46 0 0 0 3 0 0 0 84
0 0 77 0 0 0 0 0 0 0
0 0 8 0 0 0 0 62 0
0 32 55 0 0 72 0 0
0 0 0 0 0 0 0
0 54 0 0 0 0
0 95 48 56 0
0 0 0 0
0 0 0
0 73
0
0 0 0 19 0 0 23 0 0 0 0 13 0 0 0 0 0 60 0 88 0 0 54
0 65 0 0 0 0 0 0 19 83 0 0 0 76 0 0 0 64 0 0 0 0
0 0 0 92 11 0 0 0 0 0 0 0 42 0 0 0 0 0 52 0 59
0 0 0 0 0 45 71 0 40 0 0 22 0 0 0 0 0 0 0 0
0 0 56 70 32 0 0 0 0 0 0 0 0 0 0 0 23 0 0
0 0 0 54 79 45 55 0 0 0 97 0 75 0 0 0 0 0
0 0 0 0 0 0 0 0 0 0 0 0 12 0 0 0 0
0 0 0 0 0 0 0 0 0 0 0 0 0 64 36 0
0 0 0 0 85 0 0 0 0 0 37 0 0 0 0
0 76 51 98 0 0 62 0 0 0 0 0 0 0
0 1 0 0 16 12 0 0 0 0 14 0 0
0 0 33 0 60 42 0 0 2 0 0 0
0 0 0 0 0 0 0 0 0 0 0
0 0 7 0 0 0 0 0 0 79
0 0 0 0 0 0 0 0 0
0 0 0 0 6 24 0 0
0 0 0 0 0 0 64
0 0 9 0 0 0
0 0 0 0 85
0 60 25 0
0 0 0
0 27
0
0 12 60 0 0 10 0 45 0 36 0 0 0 0 0 0 0 0 0 38 0 0
0 61 35 0 94 0 0 62 0 0 0 0 0 0 0 0 0 9 43 53 57
0 0 0 49 0 63 0 0 0 0 0 0 0 0 69 0 0 0 13 0
0 0 0 0 0 0 0 0 0 73 0 0 26 0 41 71 0 0 0
0 0 0 0 0 100 0 14 49 17 0 0 0 18 17 0 0 0
0 0 0 0 7 0 0 0 0 0 0 0 70 0 0 57 0
0 65 0 0 0 0 0 0 0 0 0 0 27 99 0 36
0 0 0 0 0 0 0 0 0 0 0 0 0 0 0
0 0 0 32 44 0 0 0 0 0 0 90 77 0
0 0 4 43 0 0 19 0 0 3 89 0 95
0 0 0 0 0 97 31 0 0 84 57 0
0 59 0 0 0 0 0 0 0 58 0
0 0 0 0 0 0 0 0 0 0
0 0 0 90 0 0 0 0 0
0 0 0 0 0 0 18 0
0 0 0 0 0 0 12
0 0 0 0 0 13
0 53 0 0 0
0 0 0 0
0 0 0
0 0
0
0 100 99 0 0 0 40 0 64 0 0 0 0 0 0 0 0 0 0 0 0
0 0 0 92 46 0 0 98 32 0 0 0 0 0 0 0 0 45 0 60
0 91 0 0 0 0 0 0 82 0 28 42 0 0 0 0 0 0 0
0 0 0 0 0 54 0 0 0 0 0 32 75 0 0 0 27 0
0 49 0 0 0 0 0 0 0 0 76 0 0 0 2 0 65
0 0 0 0 0 0 0 0 42 21 0 0 0 61 85 0
0 0 0 0 0 39 0 0 0 24 100 22 0 41 0
0 0 0 58 0 0 0 0 55 0 0 0 0 0
0 0 0 0 0 0 0 0 0 71 0 0 0
0 0 0 0 81 0 0 37 0 74 84 97
0 0 80 23 41 0 0 95 0 0 0
0 10 0 0 69 0 58 0 0 7
0 0 88 0 0 31 0 0 70
0 0 0 0 0 0 0 0
0 9 0 28 0 0 0
0 0 0 0 0 0
0 0 0 99 0
0 0 0 0
0 0 0
0 0
0
0 0 0 0 0 0 0 0 0 45 0 0 100 0 0 0 0 0 0 70
0 0 0 0 0 0 0 0 71 0 55 0 0 0 0 49 0 55 0
0 0 0 0 0 0 0 0 33 0 0 0 66 0 0 0 0 0
0 0 0 0 0 78 0 0 35 0 0 0 35 0 0 26 0
0 0 73 0 0 0 0 48 44 0 0 62 0 0 0 0
0 0 0 0 0 0 0 0 0 0 0 0 0 0 0
0 0 0 11 0 0 0 22 0 0 78 0 34 0
0 0 51 0 93 0 0 0 96 0 0 65 0
0 7 0 0 0 0 0 0 0 65 0 0
0 0 0 0 0 0 0 0 0 0 0
0 29 0 2 10 0 0 0 0 0
0 0 25 0 0 0 0 0 0
0 0 0 0 0 0 0 0
0 97 0 0 0 0 60
0 0 0 0 0 26
0 0 0 43 0
0 0 80 0
0 0 37
0 0
0
0 0 80 0 0 0 67 99 25 99 9 33 0 36 19 0 0 1 0
0 0 0 0 58 0 0 27 0 0 0 76 0 0 0 0 0 10
0 0 0 0 0 0 0 0 0 0 0 1 38 0 89 0 60
0 55 0 0 90 8 18 0 0 85 0 82 0 58 0 71
0 0 0 84 0 12 0 0 15 0 0 0 0 0 0
0 0 0 0 0 0 0 0 0 0 0 0 0 88
0 42 22 0 92 99 0 0 68 0 0 22 0
0 0 20 0 0 0 0 0 0 0 54 0
0 0 0 0 0 42 0 1 0 0 60
0 0 0 0 0 0 0 0 0 0
0 0 0 0 0 0 0 0 0
0 0 0 0 17 0 0 0
0 0 0 20 0 0 0
0 0 16 0 0 0
0 0 0 0 0
0 30 0 0
0 0 0
0 58
0
0 0 0 32 0 0 0 0 61 0 28 0 0 0 0 0 37 0
0 4 0 0 24 79 0 0 0 0 29 0 70 0 0 0 0
0 0 0 0 65 32 24 62 64 0 97 0 0 0 43 0
0 0 0 0 0 0 42 0 30 0 0 0 0 0 0
0 0 0 0 0 0 0 0 40 0 73 0 49 0
0 0 24 0 0 25 0 0 49 0 0 86 0
0 14 0 0 0 0 34 0 83 79 0 0
0 95 0 81 0 0 0 0 18 0 44
0 28 0 0 0 0 88 0 0 0
0 0 0 0 0 0 87 0 0
0 0 0 0 0 0 69 0
0 0 55 0 0 12 0
0 0 64 0 0 0
0 0 0 53 0
0 16 0 0
0 0 48
0 4
0
0 0 99 70 11 0 0 0 0 0 96 0 0 99 0 0 0
0 0 0 0 0 0 0 95 0 0 0 0 0 28 93 0
0 0 0 0 0 0 0 0 0 0 0 56 43 0 0
0 11 0 0 0 0 0 0 0 0 0 0 0 0
0 0 0 0 15 59 0 51 57 0 0 0 79
0 0 0 1 80 0 0 0 0 0 0 0
0 0 34 94 0 0 0 0 0 0 41
0 40 54 0 0 0 96 62 0 0
0 0 0 12 0 0 98 22 0
0 0 0 0 0 0 0 0
0 68 0 0 0 0 88
0 0 0 0 0 0
0 0 0 0 0
0 59 0 0
0 0 0
0 0
0
0 27 0 0 0 0 0 0 0 0 85 75 23 0 0 19
0 0 0 0 0 0 0 0 0 60 0 0 0 0 0
0 0 0 0 0 0 82 62 0 0 0 0 53 69
0 93 4 0 73 84 0 0 0 0 0 95 0
0 23 0 0 27 32 0 0 0 62 0 0
0 0 0 0 33 0 0 0 0 57 0
0 62 0 16 0 83 0 0 0 0
0 0 79 21 0 0 0 0 3
0 0 0 0 0 0 0 0
0 0 6 0 34 64 3
0 0 0 0 0 0
0 0 78 0 0
0 94 18 0
0 0 53
0 47
0
0 0 0 26 0 0 77 0 0 0 0 0 39 0 0
0 0 0 0 100 0 0 0 0 0 0 0 0 0
0 0 0 0 50 0 0 0 0 31 0 51 0
0 0 0 18 3 0 0 0 0 0 0 0
0 0 6 0 86 0 0 67 0 0 16
0 0 82 0 0 0 19 0 0 0
0 92 0 0 53 0 0 57 0
0 0 0 0 0 0 0 0
0 0 0 0 0 20 0
0 0 0 0 0 0
0 0 29 0 0
0 0 66 0
0 0 0
0 0
0
0 58 0 53 54 0 58 46 0 0 0 24 0 0
0 0 0 13 0 0 0 0 0 61 0 57 0
0 0 0 0 16 74 55 0 0 0 0 73
0 0 0 82 0 0 0 12 0 11 0
0 78 0 0 98 0 4 0 0 69
0 0 0 0 0 0 0 0 0
0 0 64 0 40 0 0 25
0 58 0 84 0 0 38
0 14 0 0 0 0
0 52 47 0 0
0 0 0 0
0 64 0
0 0
0
0 0 0 36 0 0 0 0 45 98 0 0 0
0 10 12 0 0 0 6 81 74 0 0 0
0 0 29 41 0 0 34 0 54 0 0
0 37 0 0 10 0 0 0 0 0
0 92 30 0 80 73 0 0 0
0 0 0 0 0 0 0 0
0 0 84 80 38 0 0
0 14 0 0 60 0
0 0 55 0 0
0 0 3 68
0 0 0
0 0
0
0 0 0 0 0 0 0 0 0 0 0 0
0 0 0 0 0 0 0 0 0 0 10
0 0 0 0 0 0 0 1 0 8
0 82 13 68 0 0 0 0 0
0 45 98 25 0 0 0 0
0 0 17 0 0 88 67
0 0 0 0 0 0
0 0 62 65 0
0 0 0 0
0 0 0
0 0
0
0 28 56 59 0 0 0 0 0 83 0
0 0 0 0 0 0 0 0 0 0
0 0 2 0 0 13 0 41 0
0 0 87 0 0 0 0 0
0 8 48 0 65 0 41
0 0 0 0 0 0
0 0 0 0 0
0 71 0 37
0 0 0
0 0
0
0 52 0 0 37 0 0 0 0 0
0 0 0 0 0 0 55 0 84
0 90 0 0 0 0 0 0
0 0 0 79 72 0 48
0 69 0 0 0 91
0 45 0 0 0
0 0 0 0
0 0 18
0 12
0
0 82 0 0 62 0 0 0 77
0 81 0 0 0 0 0 0
0 0 60 62 0 0 14
0 0 0 73 0 0
0 0 0 29 0
0 0 13 53
0 0 58
0 0
0
0 0 0 0 93 0 0 0
0 0 0 0 0 85 0
0 0 5 0 34 0
0 0 75 64 0
0 0 16 24
0 0 0
0 0
0
0 0 0 0 0 0 9
0 0 0 0 0 0
0 0 0 16 0
0 0 0 0
0 0 0
0 0
0
0 0 0 0 0 0
0 53 0 0 0
0 79 0 57
0 0 7
0 0
0
0 0 0 0 0
0 0 0 19
0 0 0
0 0
0
0 0 81 0
0 0 0
0 0
0
0 0 24
0 0
0
0 0
0
0
6191 5743 5126 5123 4312 5629 4716 5407 6456 4461 6397 5902 5533 5570 5041 4825 5411 5593 5325 5084 5597 6077 5491 6378 4083 5178 6359 4697 5041 5370
1471.4059566478923 245.60140150654857 530.8257777777778 749.1473204633205 1037.240153256705 1341.657422343738 584.2030434782608 405.86414874551974 1444.693592476489 232.68434907000247 376.2085962566845 381.0503665814152 230.2191895370188 248.36095170722507 454.84885057471274 299.22598635501856 454.18306923222025 833.3083154121863 1264.682552954292 168.95670995670997 274.2030098672584 222.15283294483294 259.34321587190277 768.7767857142857 155.1328294296442 304.2574400602693 1447.7834570191712 427.32105263157894 324.86860111317253 633.2125
